
Gurobi 10.0.1 (win64) logging started Wed Jan 15 21:10:23 2025

Set parameter LogFile to value "result/origin100/grblog_constrainedNL_strongFalse_logSum100_pnr_origin100_I300_J30_p15_inst3_machineDESKTOP-ASQ3AP9.txt"

Gurobi 10.0.1 (win64) logging started Wed Jan 15 21:10:23 2025

Set parameter LogFile to value "result/origin100/grblog_constrainedNL_strongFalse_logSum100_pnr_origin100_I300_J30_p15_inst3_machineDESKTOP-ASQ3AP9.txt"
Set parameter LazyConstraints to value 1
Gurobi Optimizer version 10.0.1 build v10.0.1rc0 (win64)

CPU model: Intel(R) Core(TM) i7-7700 CPU @ 3.60GHz, instruction set [SSE2|AVX|AVX2]
Thread count: 4 physical cores, 8 logical processors, using up to 8 threads

Optimize a model with 60913 rows, 9360 columns and 178666 nonzeros
Model fingerprint: 0x7328630d
Variable types: 9330 continuous, 30 integer (30 binary)
Coefficient statistics:
  Matrix range     [2e-09, 5e+08]
  Objective range  [1e+00, 1e+00]
  Bounds range     [1e+00, 1e+00]
  RHS range        [1e+00, 5e+02]
Warning: Model contains large matrix coefficient range
         Consider reformulating model or setting NumericFocus parameter
         to avoid numerical issues.

User MIP start produced solution with objective 1431.13 (0.07s)
Loaded user MIP start with objective 1431.13

Presolve removed 11216 rows and 5596 columns
Presolve time: 0.27s
Presolved: 49697 rows, 3764 columns, 151553 nonzeros
Variable types: 3734 continuous, 30 integer (30 binary)
Root relaxation presolved: 49697 rows, 3764 columns, 151553 nonzeros


Root relaxation: objective 4.898674e+03, 1069 iterations, 0.27 seconds (0.70 work units)

    Nodes    |    Current Node    |     Objective Bounds      |     Work
 Expl Unexpl |  Obj  Depth IntInf | Incumbent    BestBd   Gap | It/Node Time

     0     0 4898.67358    0   27 1431.12899 4898.67358   242%     -    1s
     0     0 3686.61797    0   14 1431.12899 3686.61797   158%     -    7s
     0     0 3686.61797    0   14 1431.12899 3686.61797   158%     -   10s
     0     0 2729.42225    0   22 1431.12899 2729.42225  90.7%     -   25s
     0     0 2728.11954    0   23 1431.12899 2728.11954  90.6%     -   25s
     0     0 2727.96644    0   22 1431.12899 2727.96644  90.6%     -   26s
     0     0 2481.32468    0   25 1431.12899 2481.32468  73.4%     -   34s
     0     0 2480.20968    0   25 1431.12899 2480.20968  73.3%     -   36s
     0     0 2480.10276    0   25 1431.12899 2480.10276  73.3%     -   36s
     0     0 2353.37679    0   25 1431.12899 2353.37679  64.4%     -   42s
     0     0 2110.75245    0   22 1431.12899 2110.75245  47.5%     -   49s
     0     0 2109.83352    0   22 1431.12899 2109.83352  47.4%     -   50s
     0     0 2109.73322    0   22 1431.12899 2109.73322  47.4%     -   50s
     0     0 2038.11758    0   26 1431.12899 2038.11758  42.4%     -   58s
     0     0 1902.04262    0   23 1431.12899 1902.04262  32.9%     -   66s
     0     0 1899.77088    0   23 1431.12899 1899.77088  32.7%     -   67s
     0     0 1899.04632    0   24 1431.12899 1899.04632  32.7%     -   68s
     0     0 1898.89790    0   24 1431.12899 1898.89790  32.7%     -   68s
     0     0 1886.20491    0   22 1431.12899 1886.20491  31.8%     -   73s
     0     0 1884.72347    0   23 1431.12899 1884.72347  31.7%     -   76s
     0     0 1884.42718    0   23 1431.12899 1884.42718  31.7%     -   77s
     0     0 1877.67054    0   25 1431.12899 1877.67054  31.2%     -   80s
     0     0 1876.92951    0   23 1431.12899 1876.92951  31.2%     -   83s
     0     0 1809.76606    0   24 1431.12899 1809.76606  26.5%     -   89s
     0     0 1803.99863    0   24 1431.12899 1803.99863  26.1%     -   91s
     0     0 1803.59759    0   24 1431.12899 1803.59759  26.0%     -   92s
     0     0 1755.74068    0   23 1431.12899 1755.74068  22.7%     -   97s
     0     0 1744.43300    0   23 1431.12899 1744.43300  21.9%     -  100s
     0     0 1744.01419    0   23 1431.12899 1744.01419  21.9%     -  101s
     0     0 1722.10586    0   23 1431.12899 1722.10586  20.3%     -  106s
     0     0 1712.26349    0   23 1431.12899 1712.26349  19.6%     -  110s
     0     0 1711.58689    0   23 1431.12899 1711.58689  19.6%     -  111s
     0     0 1711.31426    0   22 1431.12899 1711.31426  19.6%     -  113s
     0     0 1711.29678    0   22 1431.12899 1711.29678  19.6%     -  115s
     0     0 1710.10116    0   23 1431.12899 1710.10116  19.5%     -  117s
     0     0 1709.51716    0   23 1431.12899 1709.51716  19.5%     -  118s
     0     0 1709.23510    0   23 1431.12899 1709.23510  19.4%     -  121s
     0     0 1705.04791    0   26 1431.12899 1705.04791  19.1%     -  141s
     0     2 1705.04791    0   26 1431.12899 1705.04791  19.1%     -  143s
     1     4 1684.59616    1   24 1431.12899 1705.04791  19.1%  2864  149s
     3     8 1679.29332    2   25 1431.12899 1692.02816  18.2%  3149  154s
     7    12 1666.98078    3   24 1431.12899 1684.55846  17.7%  2569  160s
    11    16 1574.95419    4   22 1431.12899 1684.55510  17.7%  2533  166s
    19    22 1595.53148    5   21 1431.12899 1680.96749  17.5%  2512  174s
    23    26 1598.34946    5   21 1431.12899 1677.89233  17.2%  2474  177s
    27    30 1533.00876    6   20 1431.12899 1677.89233  17.2%  2367  180s
    36    36     cutoff    7      1431.12899 1677.89233  17.2%  2211  187s
    41    37 1498.76170    7   17 1431.12899 1677.89233  17.2%  2132  190s
    52    40 1441.56324    9   15 1431.12899 1677.89233  17.2%  1945  195s
    57    43     cutoff   10      1431.12899 1669.66611  16.7%  1878  200s
    64    43 1567.05565    4   23 1431.12899 1669.66611  16.7%  1843  206s
    68    45 1562.19809    5   22 1431.12899 1669.66611  16.7%  1891  211s
    74    43     cutoff    6      1431.12899 1669.66611  16.7%  1937  218s
    80    45 1488.52848    6   20 1431.12899 1669.66611  16.7%  1970  223s
    86    43 1494.08281    5   22 1431.12899 1669.66611  16.7%  2014  227s
    94    40     cutoff    4      1431.12899 1669.66611  16.7%  1970  233s
    99    44 1482.32752    7   19 1431.12899 1669.66611  16.7%  2001  239s
   107    44     cutoff    8      1431.12899 1669.66611  16.7%  2037  245s
   117    43     cutoff    9      1431.12899 1669.66611  16.7%  2005  250s
   126    40     cutoff    7      1431.12899 1598.34946  11.7%  1991  265s
   133    42 1561.62842    4   22 1431.12899 1598.34946  11.7%  2065  272s
   141    41     cutoff    6      1431.12899 1598.34946  11.7%  2092  278s
   150    39 1495.22294    5   21 1431.12899 1598.34946  11.7%  2060  283s
   158    33     cutoff    6      1431.12899 1598.34946  11.7%  2064  291s
   166    31     cutoff    6      1431.12899 1570.99045  9.77%  2118  298s
   174    30 1480.23986    7   19 1431.12899 1553.39144  8.54%  2110  306s
   185    24     cutoff    8      1431.12899 1537.62663  7.44%  2098  314s
   199    29     cutoff    8      1431.12899 1531.68109  7.03%  2064  322s
   218    36 1441.03198    8   12 1431.12899 1531.23029  6.99%  1962  328s
   250    29 1434.02656   19    3 1431.12899 1529.48314  6.87%  1765  337s
   271    19     cutoff    7      1431.12899 1479.82593  3.40%  1715  345s
*  282    19              21    1431.1333968 1478.37848  3.30%  1681  345s
   293     7     cutoff   11      1431.13340 1460.34237  2.04%  1656  352s

Cutting planes:
  Implied bound: 245
  MIR: 337
  Flow cover: 547
  RLT: 1001
  Relax-and-lift: 88
  Lazy constraints: 1098

Explored 312 nodes (624562 simplex iterations) in 354.75 seconds (1378.48 work units)
Thread count was 8 (of 8 available processors)

Solution count 1: 1431.13 

Optimal solution found (tolerance 1.00e-04)
Best objective 1.431133396807e+03, best bound 1.431133396807e+03, gap 0.0000%

User-callback calls 15665, time in user-callback 0.42 sec
